
Gurobi 11.0.3 (linux64) logging started Fri Nov 22 05:02:18 2024

Set parameter LogFile to value "/home/yihong/Coding/OR_SUC/SUC_results_bigM100000_thread4/case24_ieee_rts_theta0.1_epsilon0.05_gurobi_seed370000_num_gen100_N_WDR100_load_scaling_factor1_exact_T8quadra_cost.txt"
Set parameter TimeLimit to value 3600
Gurobi Optimizer version 11.0.3 build v11.0.3rc0 (linux64 - "Ubuntu 20.04.6 LTS")

CPU model: AMD EPYC 7532 32-Core Processor, instruction set [SSE2|AVX|AVX2]
Thread count: 64 physical cores, 128 logical processors, using up to 4 threads

Optimize a model with 18955 rows, 10121 columns and 440954 nonzeros
Model fingerprint: 0x21b3b71d
Model has 800 quadratic constraints
Variable types: 9221 continuous, 900 integer (900 binary)
Coefficient statistics:
  Matrix range     [3e-04, 1e+05]
  QMatrix range    [2e-03, 8e-03]
  QLMatrix range   [3e-01, 6e+01]
  Objective range  [1e+00, 1e+00]
  Bounds range     [1e+00, 1e+00]
  RHS range        [1e+00, 1e+05]
Presolve removed 15581 rows and 4427 columns
Presolve time: 0.11s
Presolved: 3374 rows, 5694 columns, 19609 nonzeros
Presolved model has 800 quadratic constraint(s)
Variable types: 4833 continuous, 861 integer (861 binary)

Root relaxation: objective 8.849176e+03, 2660 iterations, 0.04 seconds (0.06 work units)

    Nodes    |    Current Node    |     Objective Bounds      |     Work
 Expl Unexpl |  Obj  Depth IntInf | Incumbent    BestBd   Gap | It/Node Time

     0     0 8849.17585    0   21          - 8849.17585      -     -    0s
     0     0 92554.7073    0  256          - 92554.7073      -     -    0s
     0     0 92629.3320    0  256          - 92629.3320      -     -    0s
     0     0 194416.430    0  190          - 194416.430      -     -    0s
     0     0 194545.965    0  189          - 194545.965      -     -    0s
     0     0 194746.131    0  157          - 194746.131      -     -    0s
     0     0 194749.754    0  158          - 194749.754      -     -    0s
     0     0 194751.057    0  160          - 194751.057      -     -    0s
     0     0 194754.876    0  160          - 194754.876      -     -    0s
     0     2 194824.395    0  160          - 194824.395      -     -    3s
H  177   190                    194869.47131 194835.890  0.02%  13.4    3s
*  177   190              58    194869.47131 194835.890  0.02%  13.4    3s

Cutting planes:
  Gomory: 62
  Implied bound: 256
  MIR: 78
  Flow cover: 90
  RLT: 1

Explored 191 nodes (9893 simplex iterations) in 3.62 seconds (3.09 work units)
Thread count was 4 (of 128 available processors)

Solution count 2: 194869 194869 

Optimal solution found (tolerance 1.00e-03)
Warning: max constraint violation (1.9272e-07) exceeds tolerance
Best objective 1.948694713145e+05, best bound 1.948358900662e+05, gap 0.0172%
